experiments/eusolverbv/9/DirectTrainGenes/1101001111001001000010110100010011111110000011/41_.out
(define-fun f ((x (BitVec 64))) (BitVec 64)
     (if0 (func30 x) (func44 #x0000000000000000 #x0000000000000001) (if0 (func27 #x0000000000000001 x) (func39 #x0000000000000000 x) (func58 x #x0000000000000001))))
0.24742315523326397
